c Lingeling SAT Solver
c 
c Version ala b02aa1a04343558c4252b5f4a723be021964f652
c 
c Copyright (C) 2010-2012 Armin Biere JKU Linz Austria.
c All rights reserved.
c 
c released Sat Oct 13 14:05:26 CEST 2012
c compiled Sat Feb 16 02:48:12 EST 2013
c 
c gcc (Debian 4.4.5-8) 4.4.5
c -Wall -O3 -DNLGLOG -DNDEBUG -DNCHKSOL -DNLGLPICOSAT 
c Linux greencar2 2.6.32-5-amd64 x86_64
c 
c reading input file p63.cnf
c no embedded options
c found 'p cnf 225590 696635' header
c read 225590 variables, 696635 clauses, 1448990 literals in 0.0 seconds
c
c feature vars 225590
c feature lits.total 1448990
c feature lits.pos 772636
c feature lits.neg 676354
c feature clauses.total 696635
c feature clauses.unit 84504
c feature clauses.bin 491107
c feature clauses.trn 119624
c feature clauses.lrg 1400
c feature cog.val.min 1
c feature cog.val.avg 100497
c feature cog.val.max 216514
c feature cog.var.min 1
c feature cog.var.avg 112796
c feature cog.var.max 225589
c
c
c --abstime=0
c --acts=2
c --actavgmax=120
c --actstdmin=20
c --actstdmax=80
c --agile=23
c --bias=2
c --block=1
c --blkrtc=0
c --blkclslim=2000
c --blkocclim=2000
c --blkmaxeff=2147483647
c --blkmineff=10000000
c --blkreleff=20
c --card=0
c --cce=3
c --ccemaxeff=100000000
c --ccemineff=5000000
c --ccereleff=3
c --check=0
c --cgrclsr=1
c --cgrmaxority=20
c --cgrmaxeff=8000000
c --cgrmineff=200000
c --cgreleff=1
c --cgrexteq=1
c --cgrextand=1
c --cgrextunits=1
c --cgrextite=1
c --cgrextxor=1
c --cliff=1
c --cliffreleff=8
c --cliffmineff=10000000
c --cliffmaxeff=100000000
c --compact=0
c --decompose=1
c --defragint=10000000
c --defragfree=50
c --elim=1
c --elmrtc=0
c --elmblk=1
c --elmclslim=1000
c --elmocclim=1000
c --elmaxeff=100000000
c --elmineff=5000000
c --elmreleff=10
c --sleeponabort=0
c --exitonabort=0
c --flipping=1
c --flipint=2
c --flipdur=50
c --fliptop=1
c --force=0
c --gauss=1
c --gaussextrall=1
c --gaussmaxor=20
c --gaussexptrn=1
c --gaussmaxeff=50000000
c --gaussmineff=2000000
c --gaussreleff=2
c --gluescale=2
c --gluekeep=0
c --inprocessing=1
c --cintinc=10000
c --irrlim=20
c --lift=1
c --lftmaxeff=20000000
c --lftmineff=500000
c --lftreleff=6
c --lhbr=1
c --lkhd=1
c --clim=-1
c --mocint=1000
c --move=2
c --log=-1
c --otfs=1
c --phase=0
c --phaseneginit=0
c --plain=0
c --probe=1
c --prbasicmaxeff=100000000
c --prbasicmineff=1000000
c --prbasicreleff=10
c --prbasic=1
c --prbasicroundlim=9
c --queuemergelim=10000
c --queuefactor=833
c --queueinc=20
c --rmincpen=4
c --seed=0
c --smallirr=90
c --smallve=1
c --smallvevars=12
c --randec=1
c --randecint=1000
c --redfixed=0
c --redlbound=0
c --redlexpfac=10
c --redldoutfac=0
c --redloutinc=10000
c --redlinit=1000
c --redlinc=1000
c --redinoutinc=100
c --redlmininc=10
c --redlmaxinc=200
c --redlminrel=10
c --redlmaxrel=300
c --redlminabs=500
c --redlmaxabs=1000000
c --reduce=1
c --restart=2
c --restartint=5
c --rstinoutinc=110
c --simplify=1
c --simpdelay=100
c --simpen=4
c --sizepen=1000000
c --sizemaxpen=3
c --sortlits=0
c --syncint=111111
c --termint=122222
c --ternres=1
c --ternresrtc=0
c --trnrmineff=4000000
c --trnrmaxeff=40000000
c --trnreleff=10
c --transred=1
c --trdmineff=100000
c --trdmaxeff=2000000
c --trdreleff=10
c --unhide=1
c --unhdextstamp=1
c --unhdhbr=0
c --unhdmaxeff=20000000
c --unhdmineff=1000000
c --unhdreleff=4
c --unhdlnpr=3
c --unhdroundlim=5
c --verbose=1
c --witness=1
c [limits] no conflict limit
c [limits] simplification delayed by 100 to 100 conflicts
c 
c  seconds         irredundant          redundant clauses agility   height
c          variables clauses conflicts large binary ternary    glue         MB
c 
c *    0.0  123224   514269         0       0      0     0  64  0.0   0.0   42
c [cut-width] 171191, max 268576, min4 109532 at 75%, min10 35345 at 89%
c [decision-order] bias 1, old 1
c [queue-schedule-all-variables]
c s    0.0  123224   514269         0       0      0     0  64  0.0   0.0   42
c [simplification-1] limit hit at 100 conflicts
c [simplification-1] simplification penalty of 4
c [ternres-1] limit 4000000 with penalty 0 = 0 + 0
c [ternres-1] all 123224 free variables schedulable
c [ternres-1] 0 ternary resolvents (0 bin, 0 trn)
c [ternres-1] 11103 variables remain 9% (112121 retained)
c [gauss-1] limit 2000000 penalty 0 = 0 + 0
c [gauss-1] extracted 168364 xors of average arity 2.0
c [gauss-1] connected 336730 occurrences of 113044 variables (average 3.0)
c [gauss-1] limit 2000000 penalty 0 = 0 + 0
c d    1.4   56450   254343       100     100      0     0  82  8.1 203.1   21
c [gauss-1] exported 0 unary, 3 binary and 0 ternary equations
c G    1.4   56450   254343       100     100      0     0  82  8.1 203.1   21
c [basicprobe-1] limit 1000000 penalty 0 = 0 + 0
c [basicprobe-1-0] 4399 probes remain 8% after last round
c [basicprobe-1-0] 1 units = 1 failed (100%) + 0 lifted (0%)
c [basicprobe-1-0] removed 1 variables, found 5522 hbrs
c p    1.7   56449   254343       100     100   5522     0  82  8.1 203.1   25
c [cgrclsr-1] limit 200000 penalty 0 = 0 + 0
c [cgrclsr-1] all 56449 free variables schedulable
c [cgrclsr-1] fully completed congruence closure
c [lift-1] limit 500000 with penalty 0 = 0 + 0
c [lift-1] using 56449 probes 100%
c [lift-1] 56408 variables remain 100% (41 retained)
c [cliff-1] limit of 10000000 steps penalty 0 = 0 + 0
c [cliff-1] failed 0, lifted 0
c [unhide-1] limit 1000000 with penalty 0 = 0 + 0
c [unhide-1-1] 0 units, 0 failed, 20967 tauts, 0 hbrs, 105 literals
c u    2.9   56449   233371       100     100  16296     0  82  8.1 203.1   25
c [transred-1] limit 100000 with penalty 0 = 0 + 0
c t    2.9   56449   233366       100     100  16291     0  82  8.1 203.1   25
c [block-1] scheduling all variables this time
c [block-1] scheduled 56449 variables 100%
c [block-1] limit of 10000000 steps penalty 0 = 0 + 0
c [block-1] fully completed blocked clause elimination
c [block-1] transition to [ all 0 rem 0 ] state
c [block-1] eliminated 4800 blocked clauses
c k    3.1   56449   228566       100     100  16291  4800  82  8.1 203.1   21
c [cce-1] scheduling all variables this time
c [cce-1] limit of 10000000 steps penalty 0 = 0 + 0
c [cce-1] incomplete covered clause elimination 50953 not tried 90%
c [cce-1] transition to [ all 1 rem 1 ] state
c [cce-1] eliminated 139 covered clauses
c E    3.9   56447   228427       100     100  24861  4800  82  8.1 203.1   21
c [elim-1] scheduling all variables this time
c [elim-1] scheduled 56447 variables 100%
c [elim-1] limit of 5000000 steps penalty 0 = 0 + 0
c [elim-1] incomplete variable elimination 41403 not tried 73%
c [elim-1] transition to [ all 1 rem 1 ] state
c [elim-1] eliminated 6814 = 12% variables out of 56447
c e    5.4   49633   224186       100      55   6850   610  82  8.1 203.1   21
c [phase-1] phase bias: 1337 positive 15%, 7573 negative 85%
c [simplification-1] removed 73591 variables 59%
c [simplification-1] limit increments divided by 30
c [simplification-1] arithmetic increase of conflict limit interval by 333
c [simplification-1] new irredundant limit 2259076
c [simplification-1] new conflict limit 433
c [simplification-1] simplification penalty reduced to 3
c R    5.6   49633   224186       409     323   6858   641  20  7.7 298.6   25
c [simplification-2] limit hit at 433 conflicts
c [simplification-2] simplification penalty of 3
c [ternres-2] limit 2000000 with penalty 1 = 1 + 0
c [ternres-2] 4445 schedulable variables 9%
c [ternres-2] 0 ternary resolvents (0 bin, 0 trn)
c [ternres-2] fully completed ternary resolution
c [gauss-2] limit 2000000 penalty 0 = 0 + 0
c [gauss-2] extracted 1011 xors of average arity 3.0
c [gauss-2] connected 3033 occurrences of 1633 variables (average 1.9)
c [gauss-2] limit 2000000 penalty 0 = 0 + 0
c [gauss-2] fully completed
c [gauss-2] exported 0 unary, 0 binary and 0 ternary equations
c G    5.9   49633   224186       433     339   6862   645  14  7.5 255.4   21
c [basicprobe-2] limit 1000000 penalty 0 = 0 + 0
c [basicprobe-2-0] 4152 probes remain 8% after last round
c [basicprobe-2-0] removed 0 variables, found 899 hbrs
c p    6.1   49633   224186       433     339   7761   645  14  7.5 255.4   25
c [cgrclsr-2] limit 100000 penalty 1 = 1 + 0
c [cgrclsr-2] all 49633 free variables schedulable
c [cgrclsr-2] fully completed congruence closure
c [lift-2] limit 250000 with penalty 1 = 1 + 0
c [lift-2] using 49599 probes 100%
c [lift-2] 49573 variables remain 100% (60 retained)
c [cliff-2] limit of 5000000 steps penalty 1 = 1 + 0
c [cliff-2] failed 0, lifted 0
c [unhide-2] limit 1000000 with penalty 0 = 0 + 0
c [unhide-2-2] 0 units, 0 failed, 1645 tauts, 0 hbrs, 269 literals
c u    6.9   49633   224176       433     339   6646   645  14  7.5 255.4   25
c [transred-3] limit 100000 with penalty 0 = 0 + 0
c t    6.9   49633   224173       433     339   6642   645  14  7.5 255.4   25
c [block-2] scheduling all variables this time
c [block-2] scheduled 49633 variables 100%
c [block-2] limit of 10000000 steps penalty 0 = 0 + 0
c [block-2] fully completed blocked clause elimination
c [block-2] transition to [ all 0 rem 0 ] state
c [block-2] eliminated 0 blocked clauses
c [cce-2] 46823 variables 94% will be scheduled this time
c [cce-2] limit of 10000000 steps penalty 0 = 0 + 0
c [cce-2] 46256 variables 93% remain to be tried next time
c [cce-2] transition to [ all 0 rem 1 ] state
c [cce-2] eliminated 348 covered clauses
c E    7.7   49633   223825       433     339   7236   645  14  7.5 255.4   21
c [elim-2] 41331 variables 83% will be scheduled this time
c [elim-2] scheduled 41331 variables 83%
c [elim-2] limit of 5000000 steps penalty 0 = 0 + 0
c [elim-2] 31255 variables 63% remain to be tried next time
c [elim-2] transition to [ all 0 rem 1 ] state
c [elim-2] eliminated 1296 = 3% variables out of 49633
c e    9.3   48337   223326       433     331   5072   643  14  7.5 255.4   21
c [phase-2] phase bias: 56 positive 85%, 10 negative 15%
c [simplification-2] removed 1296 variables 2%
c [simplification-2] limit increments divided by 2
c [simplification-2] arithmetic increase of conflict limit interval by 5000
c [simplification-2] new irredundant limit 2259076
c [simplification-2] new conflict limit 5766
c [simplification-2] simplification penalty reduced to 2
c R    9.8   48337   223326       981     814   5088   690   4  7.1 219.1   25
c -    9.9   48337   223326      1226     501   5102   731   3  6.5 198.0   25
c R   10.7   48337   223326      2277    1456   5125   799   4  6.5 273.9   25
c -   12.5   48337   223326      4213    1623   5210  1004   4  5.9 249.9   25
c R   12.9   48337   223326      5183    2563   5214  1029   3  6.5 264.1   26
c [simplification-3] limit hit at 5767 conflicts
c [simplification-3] simplification penalty of 2
c [ternres-3] limit 1000000 with penalty 2 = 2 + 0
c [ternres-3] all 48337 free variables schedulable
c [ternres-3] 64 ternary resolvents (0 bin, 64 trn)
c [ternres-3] 34772 variables remain 72% (13565 retained)
c T   13.4   48337   223326      5767    3005   5249  1188   3  6.4 257.2   26
c [gauss-3] limit 1000000 penalty 1 = 1 + 0
c [gauss-3] extracted 498 xors of average arity 3.0
c [gauss-3] connected 1494 occurrences of 1062 variables (average 1.4)
c [gauss-3] limit 1000000 penalty 1 = 1 + 0
c [gauss-3] fully completed
c [gauss-3] exported 0 unary, 0 binary and 0 ternary equations
c 
c  seconds         irredundant          redundant clauses agility   height
c          variables clauses conflicts large binary ternary    glue         MB
c 
c G   13.6   48337   223326      5767    3005   5249  1188   3  6.4 257.2   21
c [basicprobe-3] limit 500000 penalty 1 = 1 + 0
c [basicprobe-3-0] 3847 probes remain 8% after last round
c [basicprobe-3-0] removed 0 variables, found 659 hbrs
c p   13.8   48337   223326      5767    3005   5908  1184   3  6.4 257.2   25
c [cgrclsr-3] limit 70202 based on 561621 irredundant literals
c [cgrclsr-3] all 48337 free variables schedulable
c [cgrclsr-3] fully completed congruence closure
c [lift-3] limit 125000 with penalty 2 = 2 + 0
c [lift-3] using 48279 probes 100%
c [lift-3] 48271 variables remain 100% (66 retained)
c [cliff-3] limit of 2500000 steps penalty 2 = 2 + 0
c [cliff-3] failed 0, lifted 0
c [unhide-3] limit 1000000 with penalty 0 = 0 + 0
c [unhide-3-3] 1 units, 0 failed, 1532 tauts, 0 hbrs, 1507 literals
c u   14.4   48336   221824      5767    2984   6157  1172   3  6.4 257.2   25
c [transred-5] limit 642539 with penalty 0 = 0 + 0
c t   14.5   48336   221815      5767    2984   6137  1172   3  6.4 257.2   25
c [block-3] scheduling all variables this time
c [block-3] scheduled 48336 variables 100%
c [block-3] limit of 5000000 steps penalty 1 = 1 + 0
c [block-3] fully completed blocked clause elimination
c [block-3] transition to [ all 0 rem 0 ] state
c [block-3] eliminated 0 blocked clauses
c [cce-3] scheduling all variables this time
c [cce-3] limit of 10000000 steps penalty 0 = 0 + 0
c [cce-3] 44694 variables 92% remain to be tried next time
c [cce-3] transition to [ all 1 rem 1 ] state
c [cce-3] eliminated 300 covered clauses
c E   15.5   48336   221509      5767    2984   6707  1169   3  6.4 257.2   21
c [elim-3] scheduling all variables this time
c [elim-3] scheduled 48336 variables 100%
c [elim-3] limit of 5000000 steps penalty 0 = 0 + 0
c [elim-3] 30805 variables 64% remain to be tried next time
c [elim-3] transition to [ all 1 rem 1 ] state
c [elim-3] eliminated 413 = 1% variables out of 48336
c e   17.0   47923   221124      5767    2976   5584  1166   3  6.4 257.2   21
c [simplification-3] removed 414 variables 0%
c [simplification-3] no reduction of limit increments
c [simplification-3] arithmetic increase of conflict limit interval by 10000
c [simplification-3] new irredundant limit 2259076
c [simplification-3] new conflict limit 21100
c [simplification-3] simplification penalty reduced to 1
c -   18.9   47923   221124      8170    2509   5681  1406   2  6.5 247.4   26
c 1   20.0   47923   221124      9568    3714   5741  1524   5  6.6 247.3   26
c 
c  seconds         irredundant          redundant clauses agility   height
c          variables clauses conflicts large binary ternary    glue         MB
c 
c blkd: 3 bces, 4800 removed, 2011875 resolutions, 5540283 steps
c blkd: 4800 blocking literals 1%, 0 pure
c cces: 3 cces, 778 eliminated, 778 ate 100%, 0 abce 0%
c cces: 18522 probed, 1 lifted, 2 failed
c clff: 3 cliffs, 0 lifted, 0 failed
c clff: 8542 decisions, 17507655 steps
c clls: 1 sat, 0 simp, 0 freeze, 0 melt
c clls: 2145625 add, 0 assume,, 0 deref, 0 failed
c clls: 0 cassume, 0 mosat
c coll: 18 gcs, 0 rescored clauses
c cgrs: 3 count, 370308 esteps, 85590 csteps
c cgrs: 0 eqs, 0 units
c cgrs: 0 matched (0 ands 0%, 0 xors 0%, 0 ites 0%)
c cgrs: 0 simplified (0 ands 0%, 0 xors 0%, 0 ites 0%)
c cgrs: 2253 extracted (1942 ands 86%, 311 xors 14%, 0 ites 0%)
c dcps: 4 decompositions, 66774 equivalent 30%
c decs: 209720 decision, 216 random 0.103%
c decs: 45245 flipped 21.574% (in 62 phases)
c elms: 3 elims, 8523 eliminated 4%
c elms: 8523 small 100%, 0 large 0%
c elms: 36620 tried small, 8523 succeeded 23%, 28097 failed 77%
c elms: 0 subsumed, 0 strengthened, 0 blocked
c elms: 478795 copies, 328575 resolutions, 977238 ipos
c elms: 0 subchks, 0 strchks
c frcs: 0 computed, 23.3 - 76.7 average min-cut range
c gaus: 3 extractions, 169873 extracted, 2.0 size, 3 max
c gaus: exported 0 units, 3 binary and 0 ternary equations
c gaus: 0 gc, 10000086 steps, 5000043 extr 50%, 2432199 elim 24%
c glue: 6.6 avg, 2.6 scaled avg
c glue: 0 maxredglue=15 (0%)
c lift: 3 phases, 449 probed (150 level1 33%, 299 level2 67%)
c lift: 0 units, 0 equivalences, 1 implications
c hbrs: 27598 hbrs = 27598 trn 100% + 0 lrg 0%, 18 sub 0%
c lrnd: 9475 clauses, 5821 uips 61%, 23.2 length, 6.6 glue
c ints: 509 luby (67046 steps), 0 inout (0 steps)
c mins: 220246 learned lits, 5% minimized
c move: moved 5578, 778 binary 14%, 4800 ternary 86%
c otfs: str 470 dyn (402 red, 68 irr) 93 drv 20%, 377 rst 80%
c otfs: sub 4 dyn (4 red, 0 irr)
c phas: 2 computed, 9131 set, 1393 pos (15%), 7738 neg (85%)
c prbs: 3 basic, 3340 probed, 1 failed, 0 lifted
c prps: 29062890 props, 103 props/dec
c prps: 74% srch, 26% simp, 0% lkhd
c psns: 722710 searches, 127530 hits, 18% hit rate
c queu: 30405 new, 10021 del, 120 maximum priority
c queu: 20369 merged, 12170 collected, 4 gcs
c queu: 9945 deprioritized, 21.6 lines on average
c reds: 3 count, 0 reset, 3 acts 100%, 0 exp 0%
c reds: 3 arithmetic 100%, 3 double 100%
c rmbd: 11 removed, 0 red 0%
c rsts: 449 restarts 88%, 59 skipped 12%
c rsts: 79 kept 17.6% average 47.2%
c simp: 3 count (0 ilim 0%, 0 plim 0%, 3 clim 100%)
c trnr: 3 count, 0 bin, 64 trn, 5307730 steps
c tops: 102370 fixed 45%, 0 iterations
c trds: 6 transitive reductions, 46 removed, 0 failed
c trds: 1260 nodes, 1734 edges, 845478 steps
c unhd: 3 count, 3 rounds, 3504053 steps
c unhd: 0 non-trivial sccs of average size 0.0
c unhd: 1 units, 1 bin, 0 trn, 0 lrg
c unhd: 0 failed, 0 stamp, 0 lits, 0 bin, 0 trn, 0 lrg
c unhd: 24144 tauts, 5 bin 0%, 626 trn 3%, 14 lrg 0%
c unhd: 24144 tauts, 23499 stamp 97%, 1676 red 7%
c unhd: 0 hbrs, 0 trn 0%, 0 lrg 0%, 0 red 0%
c unhd: 1881 strd, 1 bin 0%, 5 trn 0%, 1875 lrg 100%, 1878 red 100%
c vars: 47923 remaining 21% and 177667 removed 79% out of 225590
c vars: 102370 fixed 45%, 8523 eliminated 4%, 66774 equivalent 30%
c vsts: 143350209 visits, 76% srch, 24% simp, 0% lkhd
c vsts: 5.1 search visits per propagation 11444.1 per conflict
c wchs: 13529252 pushed, 5393759 enlarged, 31 defrags
c 
c scaledglue  added       reduced       forcing      resolved     conflicts
c 
c all      8272 100      4455 100     80501 100     18198 100      1639 100
c 
c  0          0   0         0   0         0   0         0   0         0   0 
c  1         60   1        34   1       527   1        89   0         5   0 
c  2       3030  37      1680  38     36544  45      5522  30       360  22 
c  3       3317  40<     1470  33<    37346  46<     8985  49<      983  60<
c  4       1383  17       932  21      5222   6      2784  15       251  15 
c  5        349   4       255   6       695   1       617   3        32   2 
c  6         92   1        64   1       118   0       134   1         4   0 
c  7         20   0        10   0        22   0        28   0         2   0 
c  8         15   0         5   0        19   0        28   0         2   0 
c  9          1   0         1   0         1   0         2   0         0   0 
c 10          1   0         0   0         3   0         3   0         0   0 
c 11          2   0         2   0         2   0         3   0         0   0 
c 12          2   0         2   0         2   0         3   0         0   0 
c 13          0   0         0   0         0   0         0   0         0   0 
c 14          0   0         0   0         0   0         0   0         0   0 
c 15          0   0         0   0         0   0         0   0         0   0 
c 
c avg             2.9           3.0           2.6           2.9           3.0
c std             1.0           1.1           0.7           0.9           0.7
c 
c 209720 decisions, 9568 conflicts, 477.2 conflicts/sec
c 29062890 propagations, 1.4 megaprops/sec
c 20.0 seconds, 48.1 MB
c 
c    1.096   5% analysis
c    0.776   4% block
c    0.044   0% bump
c    0.000   0% card
c    2.004  10% cce
c    1.028   5% cliff
c    0.024   0% cutwidth
c    0.324   2% decide
c    0.000   0% force
c    1.332   7% gc
c    0.560   3% cgrclsr
c    0.696   3% decomp
c    0.364   2% defrag
c    4.704  23% elim
c    1.712   9% gauss
c    0.452   2% lift
c    0.112   1% mincls
c    0.080   0% phase
c    0.256   1% probe
c    0.020   0% reduce
c    0.496   2% restart
c    0.156   1% ternres
c    0.088   0% transred
c    0.528   3% unhide
c ==================================
c    0.032   0% preprocessing     0%
c   13.001  65% inprocessing    100%
c ==================================
c   13.033  65% simplifying
c    0.000   0% lookahead
c    7.000  35% search
c ==================================
c   20.049 100% all
c
s SATISFIABLE
